
P = 1;

n = 10;

m = 10;

w1 = 1.00;

w2 = 5.00;

L = 3.00;

g = 1.26;

t = 
[[90,79,77,99,69,63,82,94,73,67],
[91,82,62,90,72,91,77,95,61,97],
[74,71,87,91,91,81,77,80,74,90],
[78,65,61,96,96,62,91,79,96,64],
[78,80,78,81,70,82,72,79,77,65],
[76,84,76,63,67,99,77,84,79,91],
[67,90,96,60,78,85,63,69,64,91],
[65,74,71,75,95,74,89,68,93,98],
[65,62,82,82,97,90,73,74,66,93],
[66,73,83,94,74,93,79,77,62,75]];
